; Lemmas from "Productive Use of Failure in Inductive Proof",
; Andrew Ireland and Alan Bundy, JAR 1996
(declare-datatype
  list (par (a) ((nil) (cons (head a) (tail (list a))))))
(declare-datatype Nat ((Z) (S (proj1-S Nat))))
(define-fun-rec
  length
  (par (a) (((x (list a))) Nat))
  (match x
    ((nil Z)
     ((cons y xs) (S (length xs))))))
(define-fun-rec
  ++
  (par (a) (((x (list a)) (y (list a))) (list a)))
  (match x
    ((nil y)
     ((cons z xs) (cons z (++ xs y))))))
(prove
  (par (a)
    (forall ((xs (list a)) (y a) (ys (list a)))
      (= (length (++ xs (cons y ys))) (S (length (++ xs ys)))))))
